
Log started (V12.10.0.0) Fri Apr  2 17:39:19 2021


Problem 'asset.lp' read.
Read time = 0.01 sec. (0.19 ticks)
New value for default parallel thread count: 1
New value for time limit in seconds: 300
Version identifier: 12.10.0.0 | 2019-11-26 | 843d4de
CPXPARAM_Threads                                 1
CPXPARAM_TimeLimit                               300
Found incumbent of value -0.884482 after 0.00 sec. (0.09 ticks)
Tried aggregator 4 times.
MIP Presolve eliminated 497 rows and 281 columns.
MIP Presolve modified 1645 coefficients.
Aggregator did 592 substitutions.
Reduced MIP has 745 rows, 810 columns, and 3543 nonzeros.
Reduced MIP has 699 binaries, 74 generals, 0 SOSs, and 0 indicators.
Presolve time = 0.01 sec. (8.84 ticks)
Probing fixed 143 vars, tightened 12 bounds.
Probing time = 0.01 sec. (3.05 ticks)
Cover probing fixed 0 vars, tightened 86 bounds.
Tried aggregator 1 time.
MIP Presolve eliminated 177 rows and 178 columns.
MIP Presolve modified 245 coefficients.
Reduced MIP has 568 rows, 631 columns, and 2549 nonzeros.
Reduced MIP has 537 binaries, 58 generals, 0 SOSs, and 0 indicators.
Presolve time = 0.00 sec. (2.57 ticks)
Probing time = 0.00 sec. (1.91 ticks)
Tried aggregator 1 time.
Detecting symmetries...
MIP Presolve modified 42 coefficients.
Reduced MIP has 568 rows, 631 columns, and 2549 nonzeros.
Reduced MIP has 537 binaries, 58 generals, 0 SOSs, and 0 indicators.
Presolve time = 0.00 sec. (1.78 ticks)
Probing time = 0.00 sec. (1.94 ticks)
Clique table members: 1711.
MIP emphasis: balance optimality and feasibility.
MIP search method: dynamic search.
Parallel mode: none, using 1 thread.
Root relaxation solution time = 0.01 sec. (7.42 ticks)

        Nodes                                         Cuts/
   Node  Left     Objective  IInf  Best Integer    Best Bound    ItCnt     Gap

*     0+    0                           -0.8845      461.8634              --- 
      0     0      313.9874   132       -0.8845      313.9874      466     --- 
      0     0      293.3797   132       -0.8845     Cuts: 242      697     --- 
      0     0      289.6276   132       -0.8845     Cuts: 212      857     --- 
      0     0      284.5072   132       -0.8845     Cuts: 146     1025     --- 
      0     0      282.9557   132       -0.8845     Cuts: 111     1140     --- 
      0     0      281.5875   132       -0.8845      Cuts: 81     1228     --- 
Detecting symmetries...
      0     0      280.7850   132       -0.8845      Cuts: 63     1302     --- 
      0     0      279.8274   132       -0.8845      Cuts: 84     1364     --- 
      0     0      279.2959   132       -0.8845      Cuts: 69     1428     --- 
      0     0      278.8403   132       -0.8845     Cuts: 104     1491     --- 
      0     0      278.5502   132       -0.8845      Cuts: 56     1544     --- 
      0     0      277.9412   132       -0.8845      Cuts: 70     1618     --- 
*     0+    0                          208.4307      277.9412            33.35%
      0     0      277.6594   132      208.4307     Cuts: 103     1690   33.21%
      0     0      277.3271   132      208.4307      Cuts: 74     1743   33.05%
      0     0      276.8834   132      208.4307      Cuts: 68     1799   32.84%
      0     0      276.5670   132      208.4307      Cuts: 88     1868   32.69%
      0     0      276.4255   132      208.4307      Cuts: 73     1957   32.62%
      0     0      276.2604   132      208.4307      Cuts: 67     2045   32.54%
      0     0      276.1471   132      208.4307     Cuts: 102     2093   32.49%
      0     0      276.1112   132      208.4307      Cuts: 56     2132   32.47%
      0     0      275.9605   132      208.4307      Cuts: 38     2204   32.40%
      0     0      275.8872   132      208.4307     Cuts: 113     2288   32.36%
      0     0      275.7645   132      208.4307      Cuts: 52     2335   32.31%
      0     0      275.5807   132      208.4307      Cuts: 51     2412   32.22%
*     0+    0                          208.4335      275.5807            32.22%
      0     0        cutoff            208.4335      275.5807     2412   32.22%
      0     0      275.4131   132      208.4335      Cuts: 89     2481   32.13%
      0     0      275.3311   132      208.4335      Cuts: 95     2536   32.10%
      0     0      275.3079   132      208.4335      Cuts: 55     2587   32.08%
*     0+    0                          208.4361      275.3079            32.08%
Detecting symmetries...
      0     2      275.3079   152      208.4361      275.3055     2587   32.08%
Elapsed time = 0.39 sec. (363.76 ticks, tree = 0.01 MB, solutions = 3)
*    10+   10                          217.3744      275.0692            26.54%
*   110+   95                          217.3776      275.0291            26.52%
    148   123      269.5668   112      217.3776      274.9976     8247   26.51%
    339   302      245.2242    50      217.3776      274.8541    14452   26.44%

Performing restart 1

Repeating presolve.
Tried aggregator 1 time.
MIP Presolve eliminated 5 rows and 5 columns.
MIP Presolve modified 353 coefficients.
Reduced MIP has 563 rows, 626 columns, and 2190 nonzeros.
Reduced MIP has 532 binaries, 58 generals, 0 SOSs, and 0 indicators.
Presolve time = 0.00 sec. (2.31 ticks)
Tried aggregator 1 time.
Reduced MIP has 563 rows, 626 columns, and 2190 nonzeros.
Reduced MIP has 532 binaries, 58 generals, 0 SOSs, and 0 indicators.
Presolve time = 0.00 sec. (1.67 ticks)
Represolve time = 0.02 sec. (13.49 ticks)
    483     0      272.7618   141      217.3776     Cuts: 136    19329   25.48%
    483     0      269.8034   141      217.3776     Cuts: 145    19482   24.12%
    483     0      268.3482   141      217.3776     Cuts: 126    19653   23.45%
    483     0      266.9450   141      217.3776     Cuts: 114    19772   22.80%
    483     0      266.5059   141      217.3776      Cuts: 92    19869   22.60%
    483     0      265.7923   141      217.3776      Cuts: 77    19962   22.27%
    483     0      265.2380   141      217.3776      Cuts: 89    20068   22.02%
    483     0      264.7505   141      217.3776      Cuts: 80    20186   21.79%
    483     0      264.2788   141      217.3776      Cuts: 83    20272   21.58%
    483     0      263.5619   141      217.3776      Cuts: 92    20383   21.25%
    483     0      262.9624   141      217.3776      Cuts: 50    20501   20.97%
    483     0      262.8023   141      217.3776      Cuts: 42    20585   20.90%
    483     0      262.6676   141      217.3776      Cuts: 40    20658   20.83%
    483     0      262.5906   141      217.3776      Cuts: 26    20702   20.80%
    483     0      262.2262   141      217.3776      Cuts: 37    20742   20.63%
    483     0      262.0488   141      217.3776      Cuts: 39    20791   20.55%
    483     0      261.8660   141      217.3776      Cuts: 42    20845   20.47%
    483     0      260.8104   141      217.3776      Cuts: 52    20937   19.98%
    483     0      260.6012   141      217.3776      Cuts: 78    20992   19.88%
    483     0      260.4934   141      217.3776      Cuts: 58    21033   19.83%
    483     0      260.4361   141      217.3776      Cuts: 53    21078   19.81%
    483     0      260.3198   141      217.3776      Cuts: 33    21110   19.75%
    483     0      260.2691   141      217.3776      Cuts: 24    21136   19.73%
    483     0      260.2542   141      217.3776      Cuts: 24    21163   19.72%
    483     0      260.2337   141      217.3776      Cuts: 28    21194   19.72%
    483     0      260.2064   141      217.3776      Cuts: 22    21231   19.70%
    483     0      260.1968   141      217.3776      Cuts: 19    21255   19.70%
*   483+    0                          221.3011      260.1968            17.58%
*   483+    0                          221.3039      260.1968            17.57%
    483     2      260.1968   177      221.3039      260.1912    21255   17.57%
    486     5      259.6980   115      221.3039      259.8000    21454   17.40%
    492    10      251.9530    74      221.3039      259.8000    22005   17.40%
    523    32      257.6013   128      221.3039      259.6287    23231   17.32%
    607    92      258.4866   132      221.3039      259.4816    26057   17.25%
*   683+  146                          225.1876      258.5701            14.82%
    685   150      248.6425   121      225.1876      258.5701    29600   14.82%
*   733+  161                          231.9627      258.4866            11.43%
    772   194      246.2141   106      231.9627      258.3482    32890   11.37%
*   833+  236                          232.9126      258.0336            10.79%
*   849   215      integral     0      237.9341      258.0336    34820    8.45%
   1039   343      251.7840   123      237.9341      255.9291    45373    7.56%
Elapsed time = 4.67 sec. (5171.71 ticks, tree = 0.26 MB, solutions = 11)
*  1207   444      integral     0      238.5134      254.9480    53880    6.89%
*  1307+  512                          238.5139      254.2816             6.61%
   1452   596      252.0665   138      238.5139      253.1902    66690    6.15%
*  1502   628      integral     0      238.5143      253.0256    69769    6.08%
*  1523+  596                          240.2524      252.9000             5.26%
   1706   667      248.0047    71      240.2524      251.5513    82821    4.70%
*  1725   657      integral     0      240.6419      251.4870    83774    4.51%
   1947   716        cutoff            240.6419      250.4105    97234    4.06%
*  2118   724      integral     0      240.6422      249.5194   110472    3.69%
*  2131   728      integral     0      240.6423      249.4841   111059    3.67%
   2137   732      242.1966    18      240.6423      249.4682   111568    3.67%
*  2209   734      integral     0      240.6448      249.2083   115048    3.56%
   2426   748        cutoff            240.6448      248.1507   127320    3.12%
   2705   774      245.2627    87      240.6448      247.4727   142801    2.84%
   2977   724      244.3393    38      240.6448      246.4728   156363    2.42%
   3257   685      243.1114    12      240.6448      245.6915   170442    2.10%
Elapsed time = 11.78 sec. (13575.25 ticks, tree = 0.45 MB, solutions = 19)
   3564   627      242.4246    47      240.6448      245.0241   185294    1.82%
   3968   485      240.9683    43      240.6448      244.0710   201083    1.42%
   4551   164      241.4045    16      240.6448      242.2319   218302    0.66%

GUB cover cuts applied:  11
Clique cuts applied:  70
Cover cuts applied:  7
Implied bound cuts applied:  56
Flow cuts applied:  13
Mixed integer rounding cuts applied:  98
Zero-half cuts applied:  76
Lift and project cuts applied:  20
Gomory fractional cuts applied:  2

Root node processing (before b&c):
  Real time             =    0.39 sec. (364.01 ticks)
Sequential b&c:
  Real time             =   14.11 sec. (16219.44 ticks)
                          ------------
Total (root+branch&cut) =   14.50 sec. (16583.45 ticks)

Solution pool: 20 solutions saved.

MIP - Integer optimal, tolerance (0.0001/1e-06):  Objective =  2.4064475510e+02
Current MIP best bound =  2.4064527626e+02 (gap = 0.000521154, 0.00%)
Solution time =   14.50 sec.  Iterations = 220335  Nodes = 4721 (4)
Deterministic time = 16583.46 ticks  (1143.50 ticks/sec)


Incumbent solution
Variable Name           Solution Value
F                           265.000000
f1                            0.915245
f2                           23.440000
y212                          1.000000
y80                           1.000000
y190                          1.000000
y5                            1.000000
y253                          1.000000
y214                          1.000000
y241                          1.000000
y35                           1.000000
y133                          1.000000
y235                          1.000000
y11                           1.000000
y107                          1.000000
y121                          1.000000
y171                          1.000000
y117                          1.000000
s25                           6.000000
s46                           6.000000
s69                           6.000000
s84                           6.000000
s104                          6.000000
s108                          6.000000
s109                          6.000000
s119                          6.000000
s159                          6.000000
s167                          6.000000
s189                          6.000000
s191                          6.000000
s202                          6.000000
s212                          6.624790
s134                          6.010000
s115                          6.020000
s2                            6.030000
s257                          6.060000
s80                           6.320200
s190                          6.581889
s232                          6.180000
s92                           6.270000
s5                            6.675664
s225                          6.380000
s253                          7.381664
s181                          6.470000
s214                          7.172825
s241                          7.276559
s67                           6.480000
s122                          6.570000
s126                          6.580000
s144                          6.610000
s35                           6.740902
s77                           6.700000
s208                          6.750000
s133                          7.771153
s235                          7.733941
s11                           6.790000
s107                          7.779159
s121                          7.802365
s171                          7.781889
s55                           6.850000
s93                           6.940000
s15                           6.980000
s117                          7.882760
x33x235x1                     1.000000
x160x35x1                     1.000000
x29x235x1                     1.000000
x177x5x1                      1.000000
x183x241x1                    2.000000
x29x107x2                     1.000000
x177x212x2                    1.000000
x251x11x2                     2.000000
x111x214x2                    2.000000
x173x35x2                     1.000000
x140x80x2                     2.000000
x33x133x3                     1.000000
x160x212x3                    1.000000
x49x5x3                       1.000000
x49x253x3                     1.000000
x173x190x3                    1.000000
x163x190x3                    1.000000
x212x0x2                      1.000000
x212x133x3                    1.000000
x80x253x2                     1.000000
x80x171x2                     1.000000
x190x121x3                    1.000000
x190x171x3                    1.000000
x5x107x1                      1.000000
x5x117x3                      1.000000
x253x0x2                      1.000000
x253x0x3                      1.000000
x214x0x2                      2.000000
x241x0x1                      2.000000
x35x121x1                     1.000000
x35x117x2                     1.000000
x133x0x3                      2.000000
x235x0x1                      2.000000
x11x0x2                       2.000000
x107x0x1                      1.000000
x107x0x2                      1.000000
x121x0x1                      1.000000
x121x0x3                      1.000000
x171x0x2                      1.000000
x171x0x3                      1.000000
x117x0x2                      1.000000
x117x0x3                      1.000000
s33                           5.311933
z33z133z3                     1.000000
z33z235z1                     1.000000
s160                          4.975671
z160z212z3                    1.000000
z160z35z1                     1.000000
z160z133z3                    1.000000
z160z235z1                    1.000000
s49                           5.350038
z49z5z3                       1.000000
z49z253z3                     1.000000
s29                           5.974847
z29z235z1                     1.000000
z29z107z2                     1.000000
s177                          5.296899
z177z212z2                    1.000000
z177z5z1                      1.000000
z177z11z2                     1.000000
s251                          5.413146
z251z11z2                     1.000000
s111                          5.672504
z111z214z2                    1.000000
s183                          5.917848
z183z241z1                    1.000000
z183z235z1                    1.000000
s173                          4.774860
z173z190z3                    1.000000
z173z225z2                    1.000000
z173z122z2                    1.000000
z173z35z2                     1.000000
z173z133z3                    1.000000
z173z11z2                     1.000000
s163                          4.735360
z163z190z3                    1.000000
z163z133z3                    1.000000
s140                          4.795420
z140z80z2                     1.000000
z140z225z2                    1.000000
z140z214z2                    1.000000
z140z122z2                    1.000000
z140z126z2                    1.000000
z140z11z2                     1.000000
z189z133z3                    1.000000
z212z133z3                    1.000000
z80z253z2                     1.000000
z80z171z2                     1.000000
z190z121z3                    1.000000
z190z171z3                    1.000000
z5z107z1                      1.000000
z5z117z3                      1.000000
z35z121z1                     1.000000
z35z117z2                     1.000000
All other variables in the range 1-1685 are 0.
